(set-logic QF_S)
(declare-fun var0 () String)
(declare-fun var1 () String)
(declare-fun var2 () String)
(declare-fun var3 () String)
(declare-fun var4 () String)
(declare-fun var5 () String)
(declare-fun var6 () String)
(declare-fun var7 () String)
(declare-fun var8 () String)
(declare-fun var9 () String)
(declare-fun var10 () String)
(declare-fun var11 () String)
(declare-fun var12 () String)
(declare-fun var13 () String)
(declare-fun var14 () String)
(declare-fun var15 () String)
(declare-fun var16 () String)
(declare-fun var17 () String)
(declare-fun var18 () String)
(declare-fun var19 () String)
(declare-fun var20 () String)
(declare-fun var21 () String)
(declare-fun var22 () String)
(declare-fun var23 () String)
(declare-fun var24 () String)
(declare-fun var25 () String)
(declare-fun var26 () String)
(declare-fun var27 () String)
(declare-fun var28 () String)
(declare-fun var29 () String)
(declare-fun var30 () String)
(declare-fun var31 () String)
(declare-fun var32 () String)
(declare-fun var33 () String)
(declare-fun var34 () String)
(declare-fun var35 () String)
(declare-fun var36 () String)
(declare-fun var37 () String)
(declare-fun var38 () String)
(declare-fun var39 () String)
(declare-fun var40 () String)
(declare-fun var41 () String)
(declare-fun var42 () String)
(declare-fun var43 () String)
(declare-fun var44 () String)
(declare-fun var45 () String)
(declare-fun var46 () String)
(declare-fun var47 () String)
(declare-fun var48 () String)
(declare-fun var49 () String)
(declare-fun var50 () String)
(declare-fun var51 () String)
(declare-fun var52 () String)
(declare-fun var53 () String)
(declare-fun var54 () String)
(declare-fun var55 () String)
(declare-fun var56 () String)
(declare-fun var57 () String)
(declare-fun var58 () String)
(declare-fun var59 () String)
(declare-fun var60 () String)
(assert (= var0 (str.++ var1 var2)))
(assert (= var2 (str.++ var3 var4)))
(assert (= var4 (str.++ var5 var6)))
(assert (= var6 (str.++ var7 var8)))
(assert (= var8 (str.++ var9 var10)))
(assert (= var10 (str.++ var11 var12)))
(assert (= var12 (str.++ var13 var14)))
(assert (= var14 (str.++ var15 var16)))
(assert (= var16 (str.++ var17 var18)))
(assert (= var18 (str.++ var19 var20)))
(assert (= var20 (str.++ var21 var22)))
(assert (= var22 (str.++ var23 var24)))
(assert (= var24 (str.++ var25 var26)))
(assert (= var26 (str.++ var27 var28)))
(assert (= var28 (str.++ var29 var30)))
(assert (= var30 (str.++ var31 var32)))
(assert (= var32 (str.++ var33 var34)))
(assert (= var34 (str.++ var35 var36)))
(assert (= var36 (str.++ var37 var38)))
(assert (= var38 (str.++ var39 var40)))
(assert (= var40 (str.++ var41 var42)))
(assert (= var42 (str.++ var43 var44)))
(assert (= var44 (str.++ var45 var46)))
(assert (= var46 (str.++ var47 var48)))
(assert (= var48 (str.++ var49 var50)))
(assert (= var50 (str.++ var51 var52)))
(assert (= var52 (str.++ var53 var54)))
(assert (= var54 (str.++ var55 var56)))
(assert (= var56 (str.++ var57 var58)))
(assert (= var58 (str.++ var59 var60)))
(assert (= var0 "solution"))
(assert (= "a" (str.at var13 438)))
(assert (= "V" (str.at var60 302)))
(assert (= "G" (str.at var31 994)))
(assert (= "]" (str.at var3 934)))
(assert (= "h" (str.at var3 657)))
(assert (= "/" (str.at var44 409)))
(assert (= "I" (str.at var32 96)))
(assert (= "d" (str.at var29 803)))
(assert (= "M" (str.at var8 853)))
(assert (= "!" (str.at var57 657)))
(assert (= "c" (str.at var39 250)))
(assert (= "<" (str.at var14 813)))
(assert (= "l" (str.at var30 830)))
(assert (= "%" (str.at var33 146)))
(assert (= "i" (str.at var23 891)))
(assert (= "L" (str.at var40 137)))
(assert (= "4" (str.at var15 437)))
(assert (= "^" (str.at var42 713)))
(assert (= "x" (str.at var4 182)))
(assert (= "4" (str.at var25 223)))
(assert (= "L" (str.at var26 587)))
(assert (= "}" (str.at var5 850)))
(assert (= "0" (str.at var43 117)))
(assert (= "B" (str.at var36 596)))
(assert (= ":" (str.at var0 679)))
(assert (= "V" (str.at var21 764)))
(assert (= "I" (str.at var11 273)))
(assert (= "P" (str.at var48 991)))
(assert (= "-" (str.at var44 859)))
(assert (= "H" (str.at var36 53)))
(assert (= "F" (str.at var49 361)))
(assert (= "!" (str.at var10 893)))
(assert (= "@" (str.at var7 263)))
(assert (= "D" (str.at var13 322)))
(assert (= "L" (str.at var44 412)))
(assert (= "~" (str.at var3 357)))
(assert (= "|" (str.at var14 641)))
(assert (= "F" (str.at var1 672)))
(assert (= "," (str.at var19 390)))
(assert (= "7" (str.at var46 156)))
(assert (= "Y" (str.at var36 700)))
(assert (= "J" (str.at var8 473)))
(assert (= "K" (str.at var9 343)))
(assert (= "f" (str.at var49 884)))
(assert (= "9" (str.at var60 700)))
(assert (= "3" (str.at var21 758)))
(assert (= "i" (str.at var51 282)))
(assert (= "C" (str.at var36 99)))
(assert (= "]" (str.at var52 663)))
(assert (= "r" (str.at var27 436)))
(assert (= "+" (str.at var5 86)))
(assert (= "t" (str.at var54 806)))
(assert (= "d" (str.at var0 970)))
(assert (= "<" (str.at var36 60)))
(assert (= "s" (str.at var39 873)))
(assert (= "\\" (str.at var31 886)))
(assert (= "f" (str.at var48 615)))
(assert (= "e" (str.at var50 836)))
(assert (= "2" (str.at var34 135)))
(assert (= "u" (str.at var40 933)))
(assert (= "L" (str.at var20 18)))
(assert (= """" (str.at var44 469)))
(assert (= "+" (str.at var7 472)))
(assert (= "j" (str.at var11 546)))
(assert (= "l" (str.at var42 277)))
(assert (= "3" (str.at var36 711)))
(assert (= "E" (str.at var53 613)))
(assert (= "]" (str.at var20 938)))
(assert (= "4" (str.at var18 852)))
(assert (= "(" (str.at var13 530)))
(assert (= "l" (str.at var3 656)))
(assert (= "<" (str.at var50 728)))
(assert (= "%" (str.at var53 97)))
(assert (= "L" (str.at var25 857)))
(assert (= "Y" (str.at var50 967)))
(assert (= "L" (str.at var38 567)))
(assert (= "g" (str.at var36 395)))
(assert (= "9" (str.at var14 596)))
(assert (= "^" (str.at var43 360)))
(assert (= "!" (str.at var3 53)))
(assert (= "%" (str.at var2 900)))
(assert (= "<" (str.at var27 475)))
(assert (= "u" (str.at var18 407)))
(assert (= "J" (str.at var1 430)))
(assert (= "0" (str.at var45 175)))
(assert (= "p" (str.at var56 637)))
(assert (= "{" (str.at var21 117)))
(assert (= "g" (str.at var28 97)))
(assert (= "B" (str.at var27 943)))
(assert (= "Z" (str.at var38 419)))
(assert (= "Y" (str.at var8 444)))
(assert (= "U" (str.at var43 914)))
(assert (= "w" (str.at var21 538)))
(assert (= "c" (str.at var25 663)))
(assert (= "l" (str.at var20 914)))
(assert (= "_" (str.at var47 845)))
(assert (= "c" (str.at var41 164)))
(assert (= "X" (str.at var35 85)))
(assert (= "h" (str.at var7 601)))
(assert (= ";" (str.at var29 952)))
(assert (= "1" (str.at var56 659)))
(assert (= "S" (str.at var22 279)))
(assert (= "#" (str.at var37 608)))
(assert (= "+" (str.at var55 761)))
(assert (= "s" (str.at var56 845)))
(assert (= "." (str.at var46 122)))
(assert (= "`" (str.at var13 38)))
(assert (= "X" (str.at var15 468)))
(assert (= "F" (str.at var10 335)))
(assert (= "%" (str.at var5 596)))
(assert (= "o" (str.at var42 498)))
(assert (= "q" (str.at var52 68)))
(assert (= "d" (str.at var5 398)))
(assert (= "2" (str.at var22 545)))
(assert (= "8" (str.at var0 345)))
(assert (= "c" (str.at var23 934)))
(assert (= "(" (str.at var29 918)))
(assert (= "h" (str.at var8 650)))
(assert (= "}" (str.at var40 17)))
(assert (= "d" (str.at var44 262)))
(assert (= "+" (str.at var1 174)))
(assert (= "E" (str.at var3 543)))
(assert (= ";" (str.at var5 500)))
(assert (= "7" (str.at var44 236)))
(assert (= "y" (str.at var53 516)))
(assert (= "A" (str.at var57 122)))
(assert (= "_" (str.at var46 727)))
(assert (= "g" (str.at var54 400)))
(assert (= ")" (str.at var11 269)))
(assert (= "(" (str.at var45 754)))
(assert (= "8" (str.at var15 389)))
(assert (= "1" (str.at var29 621)))
(assert (= "1" (str.at var25 570)))
(assert (= "R" (str.at var13 257)))
(assert (= "I" (str.at var26 108)))
(assert (= "K" (str.at var47 391)))
(assert (= "X" (str.at var56 294)))
(assert (= "j" (str.at var8 829)))
(assert (= "L" (str.at var41 795)))
(assert (= "W" (str.at var36 714)))
(assert (= "o" (str.at var24 487)))
(assert (= "Y" (str.at var6 781)))
(assert (= "L" (str.at var59 15)))
(assert (= "?" (str.at var14 77)))
(assert (= "r" (str.at var42 161)))
(assert (= "_" (str.at var54 226)))
(assert (= "," (str.at var6 109)))
(assert (= "`" (str.at var5 515)))
(assert (= "H" (str.at var32 780)))
(assert (= "&" (str.at var53 37)))
(assert (= "H" (str.at var52 338)))
(assert (= "?" (str.at var14 467)))
(assert (= "O" (str.at var53 227)))
(assert (= "6" (str.at var3 499)))
(assert (= "0" (str.at var45 815)))
(assert (= "-" (str.at var55 41)))
(assert (= "i" (str.at var51 257)))
(assert (= "f" (str.at var49 776)))
(assert (= "[" (str.at var21 568)))
(assert (= "R" (str.at var20 688)))
(assert (= "F" (str.at var60 934)))
(assert (= "m" (str.at var7 462)))
(assert (= "'" (str.at var52 922)))
(assert (= "[" (str.at var27 347)))
(assert (= "*" (str.at var33 626)))
(assert (= "F" (str.at var17 342)))
(assert (= "c" (str.at var60 235)))
(assert (= ">" (str.at var48 728)))
(assert (= "2" (str.at var42 342)))
(assert (= "N" (str.at var33 950)))
(assert (= "9" (str.at var50 442)))
(assert (= "]" (str.at var57 231)))
(assert (= "m" (str.at var8 702)))
(assert (= "[" (str.at var52 758)))
(assert (= "W" (str.at var1 606)))
(assert (= "p" (str.at var40 339)))
(assert (= "," (str.at var30 887)))
(assert (= "^" (str.at var22 599)))
(assert (= "u" (str.at var38 171)))
(assert (= "d" (str.at var21 503)))
(assert (= "." (str.at var1 416)))
(assert (= "J" (str.at var4 502)))
(assert (= "U" (str.at var35 612)))
(assert (= "k" (str.at var55 717)))
(assert (= ">" (str.at var45 922)))
(assert (= "@" (str.at var11 945)))
(assert (= "n" (str.at var12 990)))
(assert (= "," (str.at var42 806)))
(assert (= "N" (str.at var58 646)))
(assert (= "V" (str.at var44 48)))
(assert (= "T" (str.at var47 791)))
(assert (= "z" (str.at var12 331)))
(assert (= "?" (str.at var38 182)))
(assert (= "T" (str.at var21 673)))
(assert (= "n" (str.at var21 625)))
(assert (= "`" (str.at var19 288)))
(assert (= "M" (str.at var53 636)))
(assert (= "B" (str.at var23 125)))
(assert (= "z" (str.at var26 762)))
(assert (= "y" (str.at var58 237)))
(assert (= "&" (str.at var3 805)))
(assert (= "Y" (str.at var58 487)))
(assert (= "Z" (str.at var8 148)))
(assert (= "n" (str.at var42 867)))
(assert (= "7" (str.at var21 92)))
(assert (= "S" (str.at var10 728)))
(assert (= "X" (str.at var0 132)))
(assert (= "U" (str.at var21 387)))
(assert (= "7" (str.at var19 323)))
(assert (= "7" (str.at var20 395)))
(assert (= "P" (str.at var60 577)))
(assert (= "G" (str.at var20 383)))
(assert (= "W" (str.at var37 165)))
(assert (= "r" (str.at var2 937)))
(assert (= ":" (str.at var45 464)))
(assert (= ")" (str.at var2 380)))
(assert (= "J" (str.at var5 382)))
(assert (= "!" (str.at var52 925)))
(assert (= "=" (str.at var23 985)))
(assert (= "L" (str.at var35 718)))
(assert (= "n" (str.at var37 946)))
(assert (= "-" (str.at var9 989)))
(assert (= "Q" (str.at var59 742)))
(assert (= "`" (str.at var21 809)))
(assert (= "." (str.at var52 200)))
(assert (= "s" (str.at var32 696)))
(assert (= "`" (str.at var57 19)))
(assert (= "A" (str.at var51 363)))
(assert (= "\\" (str.at var12 37)))
(assert (= "E" (str.at var15 565)))
(assert (= "q" (str.at var46 747)))
(assert (= "P" (str.at var10 619)))
(assert (= "]" (str.at var50 721)))
(assert (= ">" (str.at var45 594)))
(assert (= ";" (str.at var59 450)))
(assert (= "+" (str.at var22 569)))
(assert (= "3" (str.at var18 959)))
(assert (= "L" (str.at var17 495)))
(assert (= "G" (str.at var1 872)))
(assert (= "A" (str.at var54 442)))
(assert (= "Y" (str.at var8 901)))
(assert (= "W" (str.at var47 151)))
(assert (= "B" (str.at var8 395)))
(assert (= "S" (str.at var8 257)))
(assert (= "q" (str.at var56 658)))
(assert (= "(" (str.at var9 849)))
(assert (= "1" (str.at var11 370)))
(assert (= "e" (str.at var13 64)))
(assert (= "h" (str.at var50 293)))
(assert (= "0" (str.at var31 196)))
(assert (= "\\" (str.at var46 784)))
(assert (= "~" (str.at var51 927)))
(assert (= "T" (str.at var29 522)))
(assert (= "R" (str.at var42 198)))
(assert (= "Y" (str.at var36 3)))
(assert (= "g" (str.at var44 13)))
(assert (= "J" (str.at var3 904)))
(assert (= "*" (str.at var41 419)))
(assert (= "g" (str.at var56 429)))
(assert (= "]" (str.at var39 571)))
(assert (= "U" (str.at var6 275)))
(assert (= "k" (str.at var16 376)))
(assert (= "Q" (str.at var9 104)))
(assert (= "X" (str.at var28 293)))
(assert (= "O" (str.at var32 829)))
(assert (= "+" (str.at var8 995)))
(assert (= "%" (str.at var13 617)))
(assert (= "C" (str.at var15 841)))
(assert (= "f" (str.at var4 828)))
(assert (= "5" (str.at var25 349)))
(assert (= "-" (str.at var35 814)))
(assert (= "Z" (str.at var39 887)))
(assert (= "<" (str.at var26 739)))
(assert (= "T" (str.at var53 592)))
(assert (= "'" (str.at var0 105)))
(assert (= """" (str.at var17 481)))
(assert (= "p" (str.at var51 539)))
(assert (= "K" (str.at var51 488)))
(assert (= "H" (str.at var17 121)))
(assert (= "L" (str.at var35 539)))
(assert (= "{" (str.at var49 575)))
(assert (= "=" (str.at var58 782)))
(assert (= "C" (str.at var20 321)))
(assert (= "2" (str.at var19 6)))
(assert (= "." (str.at var50 34)))
(assert (= "e" (str.at var29 145)))
(assert (= ">" (str.at var5 531)))
(assert (= "~" (str.at var1 844)))
(assert (= "]" (str.at var37 555)))
(assert (= ";" (str.at var30 828)))
(assert (= "a" (str.at var39 531)))
(assert (= "f" (str.at var34 605)))
(assert (= "?" (str.at var42 182)))
(assert (= "u" (str.at var5 375)))
(assert (= "g" (str.at var27 835)))
(assert (= "R" (str.at var42 378)))
(assert (= "2" (str.at var2 840)))
(assert (= "\\" (str.at var25 900)))
(assert (= "a" (str.at var30 102)))
(assert (= "0" (str.at var39 67)))
(assert (= "R" (str.at var29 903)))
(assert (= "h" (str.at var8 896)))
(assert (= "k" (str.at var44 29)))
(assert (= "b" (str.at var58 840)))
(assert (= "V" (str.at var15 706)))
(assert (= "C" (str.at var52 265)))
(assert (= "~" (str.at var34 270)))
(assert (= "e" (str.at var41 120)))
(assert (= "A" (str.at var35 175)))
(assert (= "A" (str.at var22 65)))
(assert (= "d" (str.at var35 443)))
(assert (= ")" (str.at var0 570)))
(assert (= "5" (str.at var32 532)))
(assert (= "#" (str.at var29 927)))
(assert (= "Y" (str.at var36 210)))
(assert (= "r" (str.at var59 463)))
(assert (= "P" (str.at var18 804)))
(assert (= "O" (str.at var11 767)))
(assert (= "&" (str.at var48 622)))
(assert (= "c" (str.at var3 897)))
(assert (= "t" (str.at var30 417)))
(assert (= "l" (str.at var46 308)))
(assert (= "e" (str.at var8 687)))
(assert (= "*" (str.at var57 100)))
(assert (= "W" (str.at var37 859)))
(assert (= "." (str.at var40 371)))
(assert (= "\\" (str.at var30 819)))
(assert (= "k" (str.at var55 742)))
(assert (= "n" (str.at var29 798)))
(assert (= "5" (str.at var21 926)))
(assert (= "8" (str.at var12 978)))
(assert (= "/" (str.at var45 483)))
(assert (= "," (str.at var45 911)))
(assert (= "~" (str.at var5 438)))
(assert (= "=" (str.at var60 574)))
(assert (= "$" (str.at var50 31)))
(assert (= "O" (str.at var13 231)))
(assert (= "r" (str.at var11 275)))
(assert (= "a" (str.at var18 37)))
(assert (= "`" (str.at var32 77)))
(assert (= "8" (str.at var2 287)))
(assert (= "_" (str.at var8 797)))
(assert (= "w" (str.at var21 142)))
(assert (= "o" (str.at var2 599)))
(assert (= "Y" (str.at var41 538)))
(assert (= "J" (str.at var43 446)))
(assert (= "e" (str.at var49 200)))
(assert (= "@" (str.at var30 203)))
(assert (= "&" (str.at var10 808)))
(assert (= "I" (str.at var39 826)))
(assert (= "o" (str.at var25 472)))
(assert (= "S" (str.at var53 486)))
(assert (= "p" (str.at var22 13)))
(assert (= "g" (str.at var2 526)))
(assert (= "z" (str.at var56 359)))
(assert (= "q" (str.at var22 160)))
(assert (= "+" (str.at var59 838)))
(assert (= "F" (str.at var18 585)))
(assert (= "7" (str.at var44 71)))
(assert (= "W" (str.at var54 459)))
(assert (= "V" (str.at var3 485)))
(assert (= "R" (str.at var39 851)))
(assert (= "H" (str.at var26 545)))
(assert (= "o" (str.at var53 483)))
(assert (= "F" (str.at var49 165)))
(assert (= "V" (str.at var29 415)))
(assert (= "i" (str.at var31 516)))
(assert (= "w" (str.at var56 619)))
(assert (= ">" (str.at var35 537)))
(assert (= "i" (str.at var40 189)))
(assert (= "L" (str.at var22 154)))
(assert (= "`" (str.at var3 74)))
(assert (= "," (str.at var6 207)))
(assert (= "y" (str.at var38 999)))
(assert (= "l" (str.at var24 490)))
(assert (= "-" (str.at var39 763)))
(assert (= "R" (str.at var43 821)))
(assert (= "L" (str.at var48 602)))
(assert (= "'" (str.at var37 890)))
(assert (= "u" (str.at var46 70)))
(assert (= "b" (str.at var29 988)))
(assert (= "Z" (str.at var31 207)))
(assert (= "o" (str.at var54 294)))
(assert (= "k" (str.at var40 739)))
(assert (= "+" (str.at var22 783)))
(assert (= "3" (str.at var33 585)))
(assert (= "z" (str.at var23 539)))
(assert (= "$" (str.at var42 694)))
(assert (= "z" (str.at var59 4)))
(assert (= "~" (str.at var56 487)))
(assert (= """" (str.at var8 372)))
(assert (= "?" (str.at var20 510)))
(assert (= "7" (str.at var2 750)))
(assert (= "Q" (str.at var13 376)))
(assert (= "8" (str.at var43 268)))
(assert (= "J" (str.at var10 867)))
(assert (= "m" (str.at var19 918)))
(assert (= "I" (str.at var21 740)))
(assert (= "D" (str.at var31 957)))
(assert (= "s" (str.at var14 238)))
(assert (= "l" (str.at var14 631)))
(assert (= "l" (str.at var39 108)))
(assert (= "o" (str.at var58 857)))
(assert (= "S" (str.at var3 996)))
(assert (= "}" (str.at var29 232)))
(assert (= "P" (str.at var43 551)))
(assert (= "{" (str.at var47 389)))
(assert (= "d" (str.at var32 729)))
(assert (= ";" (str.at var12 963)))
(assert (= "Q" (str.at var46 263)))
(assert (= "[" (str.at var34 915)))
(assert (= "k" (str.at var43 894)))
(assert (= "6" (str.at var17 740)))
(assert (= "9" (str.at var23 420)))
(assert (= ":" (str.at var52 935)))
(assert (= "B" (str.at var3 645)))
(assert (= "/" (str.at var6 530)))
(assert (= "h" (str.at var57 825)))
(assert (= "S" (str.at var31 981)))
(assert (= "X" (str.at var60 100)))
(assert (= "T" (str.at var25 521)))
(assert (= "[" (str.at var60 229)))
(assert (= "i" (str.at var44 770)))
(assert (= "O" (str.at var54 807)))
(assert (= "Q" (str.at var20 964)))
(assert (= "e" (str.at var47 247)))
(assert (= "S" (str.at var44 240)))
(assert (= """" (str.at var0 232)))
(assert (= "V" (str.at var57 932)))
(assert (= "3" (str.at var6 840)))
(assert (= "Y" (str.at var5 483)))
(assert (= "M" (str.at var55 631)))
(assert (= "s" (str.at var44 729)))
(assert (= "c" (str.at var2 218)))
(assert (= "J" (str.at var17 97)))
(assert (= "D" (str.at var12 571)))
(assert (= "V" (str.at var19 304)))
(assert (= "W" (str.at var14 560)))
(assert (= "A" (str.at var34 822)))
(assert (= "`" (str.at var22 694)))
(assert (= "P" (str.at var3 780)))
(assert (= "r" (str.at var38 422)))
(assert (= "^" (str.at var21 897)))
(assert (= "Y" (str.at var27 5)))
(assert (= "X" (str.at var13 426)))
(assert (= "A" (str.at var26 199)))
(assert (= "D" (str.at var26 406)))
(assert (= "L" (str.at var56 756)))
(assert (= "J" (str.at var25 333)))
(assert (= "2" (str.at var33 917)))
(assert (= ">" (str.at var39 914)))
(assert (= "." (str.at var55 90)))
(assert (= "k" (str.at var59 432)))
(assert (= "C" (str.at var43 745)))
(assert (= "1" (str.at var42 751)))
(assert (= "S" (str.at var50 905)))
(assert (= "c" (str.at var20 384)))
(assert (= ")" (str.at var26 261)))
(assert (= "~" (str.at var48 720)))
(assert (= "+" (str.at var33 913)))
(assert (= "W" (str.at var27 354)))
(assert (= "C" (str.at var3 179)))
(assert (= "i" (str.at var4 818)))
(assert (= """" (str.at var37 211)))
(assert (= "-" (str.at var7 151)))
(assert (= "2" (str.at var3 431)))
(assert (= "{" (str.at var13 498)))
(assert (= "l" (str.at var25 996)))
(assert (= "D" (str.at var60 365)))
(assert (= "L" (str.at var39 324)))
(assert (= ":" (str.at var9 763)))
(assert (= "+" (str.at var5 318)))
(assert (= "o" (str.at var57 708)))
(assert (= "e" (str.at var14 151)))
(assert (= "M" (str.at var42 691)))
(assert (= "9" (str.at var14 683)))
(assert (= "~" (str.at var10 901)))
(assert (= "0" (str.at var57 541)))
(assert (= "v" (str.at var16 414)))
(assert (= "#" (str.at var5 331)))
(assert (= "b" (str.at var13 807)))
(assert (= "Z" (str.at var57 568)))
(assert (= "G" (str.at var56 563)))
(assert (= "S" (str.at var6 13)))
(assert (= "f" (str.at var24 779)))
(assert (= "8" (str.at var55 45)))
(assert (= "3" (str.at var4 496)))
(assert (= "-" (str.at var42 167)))
(assert (= ":" (str.at var53 769)))
(assert (= "i" (str.at var54 284)))
(assert (= "J" (str.at var12 450)))
(assert (= "m" (str.at var38 678)))
(assert (= "j" (str.at var45 639)))
(assert (= """" (str.at var41 847)))
(assert (= "#" (str.at var56 577)))
(assert (= "." (str.at var25 555)))
(assert (= "4" (str.at var19 661)))
(assert (= "X" (str.at var45 221)))
(assert (= "n" (str.at var15 991)))
(assert (= "d" (str.at var47 546)))
(assert (= "_" (str.at var21 427)))
(assert (= "y" (str.at var25 107)))
(assert (= "Z" (str.at var56 279)))
(assert (= "N" (str.at var47 831)))
(assert (= "W" (str.at var56 146)))
(assert (= "." (str.at var39 937)))
(assert (= "2" (str.at var3 205)))
(assert (= "H" (str.at var21 32)))
(assert (= "4" (str.at var16 328)))
(assert (= "n" (str.at var46 718)))
(assert (= """" (str.at var0 843)))
(assert (= "{" (str.at var36 37)))
(assert (= "6" (str.at var30 486)))
(assert (= "d" (str.at var50 663)))
(assert (= ";" (str.at var43 814)))
(assert (= "H" (str.at var56 468)))
(assert (= "7" (str.at var33 856)))
(assert (= "{" (str.at var32 844)))
(assert (= "J" (str.at var44 199)))
(assert (= "n" (str.at var58 78)))
(assert (= "m" (str.at var10 722)))
(assert (= "G" (str.at var29 624)))
(assert (= "-" (str.at var33 674)))
(assert (= "=" (str.at var21 249)))
(assert (= "t" (str.at var2 34)))
(assert (= "D" (str.at var44 473)))
(assert (= ">" (str.at var10 997)))
(assert (= "j" (str.at var14 569)))
(assert (= "}" (str.at var20 301)))
(assert (= "q" (str.at var34 450)))
(assert (= "w" (str.at var26 430)))
(assert (= "~" (str.at var40 828)))
(assert (= "t" (str.at var17 67)))
(assert (= "q" (str.at var12 988)))
(assert (= "," (str.at var10 560)))
(assert (= "1" (str.at var51 936)))
(assert (= "T" (str.at var18 66)))
(assert (= "q" (str.at var7 746)))
(assert (= "M" (str.at var3 913)))
(assert (= "@" (str.at var56 937)))
(assert (= "V" (str.at var21 981)))
(assert (= "y" (str.at var44 910)))
(assert (= "9" (str.at var45 776)))
(assert (= "o" (str.at var40 408)))
(assert (= "9" (str.at var38 857)))
(assert (= "W" (str.at var37 813)))
(assert (= "V" (str.at var16 2)))
(assert (= "Q" (str.at var11 576)))
(assert (= "c" (str.at var7 60)))
(assert (= "!" (str.at var52 884)))
(assert (= "E" (str.at var9 344)))
(assert (= "N" (str.at var32 958)))
(assert (= "p" (str.at var59 911)))
(assert (= "J" (str.at var25 676)))
(assert (= "O" (str.at var6 63)))
(assert (= "," (str.at var14 40)))
(assert (= "d" (str.at var8 833)))
(assert (= "(" (str.at var52 499)))
(assert (= "1" (str.at var48 897)))
(assert (= "=" (str.at var39 56)))
(assert (= "2" (str.at var37 292)))
(assert (= "*" (str.at var51 906)))
(assert (= ";" (str.at var41 233)))
(assert (= "*" (str.at var22 981)))
(assert (= "L" (str.at var51 399)))
(assert (= "Z" (str.at var4 218)))
(assert (= "j" (str.at var48 221)))
(assert (= "0" (str.at var44 674)))
(assert (= "F" (str.at var21 498)))
(assert (= "l" (str.at var37 7)))
(assert (= "f" (str.at var10 529)))
(assert (= "y" (str.at var16 744)))
(assert (= "m" (str.at var11 495)))
(assert (= "%" (str.at var40 951)))
(assert (= "8" (str.at var13 769)))
(assert (= "/" (str.at var18 801)))
(assert (= "h" (str.at var1 268)))
(assert (= "[" (str.at var40 542)))
(assert (= "k" (str.at var12 868)))
(assert (= "4" (str.at var42 659)))
(assert (= "\\" (str.at var8 603)))
(assert (= "a" (str.at var34 693)))
(assert (= "q" (str.at var5 929)))
(assert (= "C" (str.at var13 745)))
(assert (= "u" (str.at var21 914)))
(assert (= "x" (str.at var7 354)))
(assert (= "m" (str.at var13 460)))
(assert (= "v" (str.at var15 911)))
(assert (= "<" (str.at var13 505)))
(assert (= "f" (str.at var52 610)))
(assert (= "(" (str.at var50 547)))
(assert (= "X" (str.at var36 10)))
(assert (= "z" (str.at var23 928)))
(assert (= ":" (str.at var27 969)))
(assert (= "Y" (str.at var19 715)))
(assert (= "~" (str.at var51 396)))
(assert (= "(" (str.at var41 16)))
(assert (= "(" (str.at var0 515)))
(assert (= "/" (str.at var56 829)))
(assert (= "t" (str.at var21 65)))
(assert (= "J" (str.at var17 134)))
(assert (= "S" (str.at var56 601)))
(assert (= "9" (str.at var20 818)))
(assert (= "3" (str.at var3 387)))
(assert (= "U" (str.at var49 866)))
(assert (= "p" (str.at var16 252)))
(assert (= "J" (str.at var11 794)))
(assert (= "y" (str.at var3 807)))
(assert (= "y" (str.at var27 313)))
(assert (= "1" (str.at var7 791)))
(assert (= "y" (str.at var17 255)))
(assert (= "6" (str.at var1 996)))
(assert (= "!" (str.at var17 272)))
(assert (= "\\" (str.at var20 823)))
(assert (= "i" (str.at var31 652)))
(assert (= ";" (str.at var25 343)))
(assert (= "C" (str.at var10 726)))
(assert (= """" (str.at var14 609)))
(assert (= "," (str.at var0 364)))
(assert (= "B" (str.at var24 794)))
(assert (= "N" (str.at var31 64)))
(assert (= "K" (str.at var55 322)))
(assert (= "c" (str.at var37 81)))
(assert (= "M" (str.at var5 317)))
(assert (= "e" (str.at var40 549)))
(assert (= "<" (str.at var23 32)))
(assert (= "f" (str.at var14 374)))
(assert (= "@" (str.at var6 952)))
(assert (= "A" (str.at var7 468)))
(assert (= "(" (str.at var11 986)))
(assert (= "D" (str.at var30 555)))
(assert (= "m" (str.at var3 590)))
(assert (= "0" (str.at var5 933)))
(assert (= "S" (str.at var14 575)))
(assert (= "Q" (str.at var53 192)))
(assert (= "q" (str.at var14 846)))
(assert (= "." (str.at var2 666)))
(assert (= "0" (str.at var19 680)))
(assert (= "." (str.at var0 139)))
(assert (= "L" (str.at var1 513)))
(assert (= "U" (str.at var28 12)))
(assert (= "F" (str.at var5 584)))
(assert (= ">" (str.at var38 840)))
(assert (= "X" (str.at var60 418)))
(assert (= "j" (str.at var7 145)))
(assert (= "[" (str.at var25 399)))
(assert (= "q" (str.at var34 117)))
(assert (= "q" (str.at var4 873)))
(assert (= "-" (str.at var42 304)))
(assert (= "9" (str.at var45 554)))
(assert (= "4" (str.at var7 294)))
(assert (= "v" (str.at var36 889)))
(assert (= "r" (str.at var20 834)))
(assert (= "^" (str.at var12 593)))
(assert (= "F" (str.at var45 556)))
(assert (= ">" (str.at var35 382)))
(assert (= "p" (str.at var18 432)))
(assert (= "p" (str.at var58 953)))
(assert (= "j" (str.at var2 93)))
(assert (= "." (str.at var27 820)))
(assert (= "r" (str.at var1 70)))
(assert (= "4" (str.at var36 266)))
(assert (= "F" (str.at var2 404)))
(assert (= "E" (str.at var31 159)))
(assert (= "c" (str.at var51 740)))
(assert (= "`" (str.at var52 527)))
(assert (= "l" (str.at var49 415)))
(assert (= "@" (str.at var12 276)))
(assert (= "|" (str.at var14 416)))
(assert (= "I" (str.at var28 986)))
(assert (= "e" (str.at var14 31)))
(assert (= "`" (str.at var48 449)))
(assert (= "B" (str.at var30 535)))
(assert (= "j" (str.at var3 424)))
(assert (= "^" (str.at var11 316)))
(assert (= "y" (str.at var41 457)))
(assert (= "=" (str.at var46 973)))
(assert (= "3" (str.at var1 180)))
(assert (= "G" (str.at var50 711)))
(assert (= "^" (str.at var6 978)))
(assert (= ";" (str.at var60 552)))
(assert (= "S" (str.at var0 886)))
(assert (= "u" (str.at var14 417)))
(assert (= "`" (str.at var19 255)))
(assert (= "f" (str.at var27 606)))
(assert (= "." (str.at var46 456)))
(assert (= "3" (str.at var17 610)))
(assert (= ":" (str.at var41 796)))
(assert (= "K" (str.at var43 404)))
(assert (= "?" (str.at var4 749)))
(assert (= "," (str.at var43 784)))
(assert (= "m" (str.at var42 772)))
(assert (= "6" (str.at var42 567)))
(assert (= "r" (str.at var54 877)))
(assert (= "N" (str.at var34 401)))
(assert (= "n" (str.at var40 700)))
(assert (= "u" (str.at var12 274)))
(assert (= "V" (str.at var40 855)))
(assert (= "X" (str.at var23 949)))
(assert (= "U" (str.at var11 835)))
(assert (= "v" (str.at var28 46)))
(assert (= "m" (str.at var15 207)))
(assert (= "H" (str.at var40 821)))
(assert (= "b" (str.at var14 856)))
(assert (= "$" (str.at var20 199)))
(assert (= "|" (str.at var48 214)))
(assert (= "n" (str.at var23 11)))
(assert (= "%" (str.at var18 64)))
(assert (= "Y" (str.at var60 867)))
(assert (= "~" (str.at var48 436)))
(assert (= "s" (str.at var20 364)))
(assert (= "%" (str.at var40 154)))
(assert (= "9" (str.at var6 580)))
(assert (= ">" (str.at var59 577)))
(assert (= "*" (str.at var52 507)))
(assert (= "E" (str.at var4 735)))
(assert (= "G" (str.at var28 20)))
(assert (= "I" (str.at var44 406)))
(assert (= "I" (str.at var17 48)))
(assert (= "]" (str.at var52 753)))
(assert (= "x" (str.at var49 711)))
(assert (= "<" (str.at var12 594)))
(assert (= "n" (str.at var18 220)))
(assert (= "," (str.at var5 347)))
(assert (= "G" (str.at var19 772)))
(assert (= """" (str.at var21 0)))
(assert (= "M" (str.at var34 468)))
(assert (= "n" (str.at var14 527)))
(assert (= "n" (str.at var54 514)))
(assert (= "D" (str.at var14 200)))
(assert (= "s" (str.at var25 795)))
(assert (= "p" (str.at var11 177)))
(assert (= "m" (str.at var41 690)))
(assert (= "x" (str.at var2 507)))
(assert (= "3" (str.at var31 55)))
(assert (= "d" (str.at var27 817)))
(assert (= "L" (str.at var41 673)))
(assert (= "!" (str.at var45 486)))
(assert (= "5" (str.at var10 868)))
(assert (= "Z" (str.at var49 55)))
(assert (= "r" (str.at var40 499)))
(assert (= ")" (str.at var50 668)))
(assert (= "+" (str.at var48 715)))
(assert (= "M" (str.at var36 648)))
(assert (= "M" (str.at var56 769)))
(assert (= ">" (str.at var59 560)))
(assert (= "o" (str.at var42 440)))
(assert (= "0" (str.at var51 385)))
(assert (= "c" (str.at var46 906)))
(assert (= "{" (str.at var15 170)))
(assert (= "z" (str.at var4 955)))
(assert (= "-" (str.at var60 628)))
(assert (= "v" (str.at var12 471)))
(assert (= "x" (str.at var4 907)))
(assert (= "(" (str.at var9 991)))
(assert (= "z" (str.at var33 414)))
(assert (= "L" (str.at var50 403)))
(assert (= "b" (str.at var5 939)))
(assert (= "E" (str.at var32 878)))
(assert (= "O" (str.at var13 714)))
(assert (= "r" (str.at var15 556)))
(assert (= "h" (str.at var31 239)))
(assert (= "f" (str.at var5 650)))
(assert (= "~" (str.at var2 417)))
(assert (= "L" (str.at var2 203)))
(assert (= "U" (str.at var57 597)))
(assert (= "P" (str.at var22 673)))
(assert (= "(" (str.at var9 761)))
(assert (= "$" (str.at var41 237)))
(assert (= "'" (str.at var56 801)))
(assert (= "O" (str.at var14 785)))
(assert (= "y" (str.at var25 315)))
(assert (= "d" (str.at var3 964)))
(assert (= "X" (str.at var19 634)))
(assert (= "x" (str.at var45 75)))
(assert (= "n" (str.at var57 27)))
(assert (= "@" (str.at var24 930)))
(assert (= "n" (str.at var3 169)))
(assert (= "c" (str.at var16 733)))
(assert (= "Q" (str.at var7 475)))
(assert (= "}" (str.at var31 521)))
(assert (= "P" (str.at var28 24)))
(assert (= "r" (str.at var34 982)))
(assert (= "|" (str.at var23 760)))
(assert (= "{" (str.at var52 609)))
(assert (= "h" (str.at var37 463)))
(assert (= ":" (str.at var39 560)))
(assert (= "U" (str.at var40 921)))
(assert (= "?" (str.at var7 329)))
(assert (= "{" (str.at var32 605)))
(assert (= "O" (str.at var44 637)))
(assert (= "$" (str.at var20 374)))
(assert (= "O" (str.at var37 408)))
(assert (= "m" (str.at var9 44)))
(assert (= "g" (str.at var16 518)))
(assert (= "J" (str.at var13 119)))
(assert (= "H" (str.at var47 298)))
(assert (= "9" (str.at var46 287)))
(assert (= "}" (str.at var33 165)))
(assert (= "|" (str.at var53 439)))
(assert (= "<" (str.at var43 97)))
(assert (= "+" (str.at var18 187)))
(assert (= "t" (str.at var50 506)))
(assert (= "c" (str.at var42 140)))
(assert (= "*" (str.at var28 248)))
(assert (= "6" (str.at var46 656)))
(assert (= "A" (str.at var6 858)))
(assert (= "Y" (str.at var60 436)))
(assert (= "*" (str.at var54 345)))
(assert (= "y" (str.at var7 609)))
(assert (= "g" (str.at var32 263)))
(assert (= "u" (str.at var3 45)))
(assert (= "g" (str.at var27 263)))
(assert (= "3" (str.at var58 415)))
(assert (= "a" (str.at var24 856)))
(assert (= "A" (str.at var41 857)))
(assert (= "s" (str.at var1 426)))
(assert (= "T" (str.at var60 90)))
(assert (= "m" (str.at var27 144)))
(assert (= "R" (str.at var39 457)))
(assert (= "Z" (str.at var44 988)))
(assert (= "K" (str.at var1 186)))
(assert (= "X" (str.at var44 521)))
(assert (= "Y" (str.at var37 788)))
(assert (= "f" (str.at var40 791)))
(assert (= "`" (str.at var16 128)))
(assert (= "X" (str.at var38 4)))
(assert (= "g" (str.at var14 61)))
(assert (= "0" (str.at var12 285)))
(assert (= "N" (str.at var6 418)))
(assert (= "Q" (str.at var44 226)))
(assert (= "X" (str.at var48 369)))
(assert (= "p" (str.at var32 202)))
(assert (= "H" (str.at var37 694)))
(assert (= "&" (str.at var20 37)))
(assert (= "1" (str.at var49 883)))
(assert (= """" (str.at var6 474)))
(assert (= "b" (str.at var45 166)))
(assert (= "F" (str.at var16 95)))
(assert (= "y" (str.at var49 730)))
(assert (= "_" (str.at var28 131)))
(check-sat)